language ESSENCE 1.3

letting x be
        [[[[[{6}, {7}], [{8}, {6}]], [[{6}, {6}], [{6}, {6}]]],
          [[[{6}, {6}], [{6}, {6}]], [[{6}, {6}], [{6}, {6}]]]],
         [[[[{6}, {6}], [{6}, {6}]], [[{6}, {6}], [{6}, {6}]]],
          [[[{6}, {6}], [{6}, {6}]], [[{6}, {6}], [{6}, {6}]]]]]
